4 
5  35 52 
6  07 22 37 52 
7  07 19 34 49 
8  04 19 34 49 
9  04 19 34 49 
10  04 19 34 49 
11  04 19 34 49 
12  04 19 34 49 
13  04 20 37 52 
14  07 22 37 52 
15  07 21 36 51 
16  06 21 36 51 
17  06 21 36 51 
18  06 21 36 51 
19  06 20 34 49 
20  04 21 36 51 
21  06 21 36 51 
22  06 21 36 51 
23  05 20 39 56 
0 
